12
0 290 201 3143 286 113 1840 2908 611 1055 3639 1737
290 0 206 2831 271 319 2317 3038 1025 878 4812 1998
201 236 0 2394 290 232 1697 3068 785 1031 3783 1915
3100 2701 2411 0 3043 2746 546 799 118 883 9999999 1450
702 258 199 2847 0 268 1681 3035 1646 975 3759 2381
113 319 232 2951 268 0 2143 2974 752 1018 3488 1915
1566 2031 1856 2798 1819 1713 0 9999999 2715 2004 889 563
1934 2360 2372 2805 2260 2238 9999999 0 999999 1767 1306 503
458 696 1016 2991 1025 856 2811 4587 0 999999 999999 2265
1774 1221 1234 2993 1324 1371 1589 2071 99999999 0 99999999 3984
2290 2524 2524 9999999 2501 2478 1122 1103 3637 99999999 0 99999999
2471 1814 1814 3468 1876 2510 990 784 3243 3458 9999999 0
